
n_res = 8;
rcap = [16, 19, 15, 19, 764, 679, 792, 758];
rtype = [1, 1, 1, 1, 2, 2, 2, 2];
n_tasks = 50;
modes =  [{1, 2, 3, 4, 5, 6}, {7, 8, 9, 10, 11, 12}, {13, 14, 15, 16, 17, 18}, {19, 20, 21, 22, 23, 24}, {25, 26, 27, 28, 29, 30}, {31, 32, 33, 34, 35, 36}, {37, 38, 39, 40, 41, 42}, {43, 44, 45, 46, 47, 48}, {49, 50, 51, 52, 53, 54}, {55, 56, 57, 58, 59, 60}, {61, 62, 63, 64, 65, 66}, {67, 68, 69, 70, 71, 72}, {73, 74, 75, 76, 77, 78}, {79, 80, 81, 82, 83, 84}, {85, 86, 87, 88, 89, 90}, {91, 92, 93, 94, 95, 96}, {97, 98, 99, 100, 101, 102}, {103, 104, 105, 106, 107, 108}, {109, 110, 111, 112, 113, 114}, {115, 116, 117, 118, 119, 120}, {121, 122, 123, 124, 125, 126}, {127, 128, 129, 130, 131, 132}, {133, 134, 135, 136, 137, 138}, {139, 140, 141, 142, 143, 144}, {145, 146, 147, 148, 149, 150}, {151, 152, 153, 154, 155, 156}, {157, 158, 159, 160, 161, 162}, {163, 164, 165, 166, 167, 168}, {169, 170, 171, 172, 173, 174}, {175, 176, 177, 178, 179, 180}, {181, 182, 183, 184, 185, 186}, {187, 188, 189, 190, 191, 192}, {193, 194, 195, 196, 197, 198}, {199, 200, 201, 202, 203, 204}, {205, 206, 207, 208, 209, 210}, {211, 212, 213, 214, 215, 216}, {217, 218, 219, 220, 221, 222}, {223, 224, 225, 226, 227, 228}, {229, 230, 231, 232, 233, 234}, {235, 236, 237, 238, 239, 240}, {241, 242, 243, 244, 245, 246}, {247, 248, 249, 250, 251, 252}, {253, 254, 255, 256, 257, 258}, {259, 260, 261, 262, 263, 264}, {265, 266, 267, 268, 269, 270}, {271, 272, 273, 274, 275, 276}, {277, 278, 279, 280, 281, 282}, {283, 284, 285, 286, 287, 288}, {289, 290, 291, 292, 293, 294}, {295, 296, 297, 298, 299, 300}];
succ =  [{48, 46, 35, 33, 25, 20, 15, 7}, {48, 45, 35, 32, 31, 27, 26, 25, 23, 22, 19}, {48, 47, 31, 23, 19, 10}, {45, 44, 42, 41, 35, 32, 30, 29, 27, 26, 24, 23}, {49, 48, 45, 44, 40, 36, 35, 31, 28, 20}, {47, 46, 45, 44, 42, 35, 31, 29, 24, 20}, {49, 45, 34, 29, 28, 27, 26, 24, 22}, {47, 45, 44, 42, 32, 31, 30, 27, 24}, {48, 45, 42, 41, 38, 35, 34, 24, 23}, {46, 45, 43, 41, 38, 35, 33, 25}, {46, 39, 34, 26, 24, 22}, {49, 46, 45, 44, 41, 39, 38, 34, 24}, {47, 45, 41, 40, 39, 31, 28, 26}, {47, 45, 44, 41, 40, 39, 38, 36, 34}, {44, 41, 34, 27, 26, 24}, {46, 42, 40, 34, 27}, {40, 39, 22}, {47, 42, 40, 31}, {41, 39, 38, 34}, {41, 39, 26}, {40, 39, 26}, {44, 42, 41, 37}, {46, 43, 40, 37}, {43, 40, 37}, {44, 42, 37}, {38, 37}, {38, 37}, {42, 37}, {39, 37}, {39, 38}, {34}, {34}, {34}, {37}, {39}, {43}, {}, {}, {}, {}, {}, {}, {}, {}, {}, {}, {}, {}, {}, {}];
n_opt = 300;
dur = [1, 2, 6, 17, 22, 29, 8, 20, 22, 25, 26, 28, 6, 7, 8, 9, 11, 30, 2, 14, 17, 24, 25, 26, 4, 5, 13, 18, 28, 29, 9, 13, 18, 24, 28, 29, 2, 5, 9, 11, 17, 28, 1, 9, 12, 18, 19, 22, 10, 16, 18, 19, 20, 21, 6, 7, 18, 19, 24, 27, 2, 15, 17, 22, 24, 29, 3, 8, 9, 16, 18, 23, 4, 5, 14, 15, 16, 18, 6, 11, 15, 16, 28, 29, 2, 4, 15, 20, 22, 26, 9, 10, 11, 13, 18, 24, 4, 5, 7, 8, 11, 15, 12, 16, 18, 20, 23, 24, 1, 8, 12, 21, 23, 27, 2, 6, 7, 8, 9, 10, 7, 11, 16, 22, 25, 29, 5, 9, 13, 20, 23, 29, 5, 6, 15, 23, 25, 29, 9, 11, 17, 25, 26, 30, 3, 21, 22, 24, 25, 26, 4, 6, 9, 11, 17, 23, 2, 20, 23, 25, 26, 27, 2, 3, 4, 17, 18, 30, 1, 5, 7, 10, 17, 30, 15, 24, 25, 26, 29, 30, 2, 15, 16, 17, 18, 30, 5, 6, 13, 15, 24, 25, 5, 21, 24, 25, 29, 30, 6, 10, 15, 20, 25, 28, 1, 4, 10, 11, 13, 16, 1, 2, 8, 13, 19, 25, 5, 7, 11, 21, 22, 24, 4, 11, 12, 21, 22, 26, 4, 5, 9, 10, 18, 22, 3, 13, 14, 19, 25, 26, 12, 13, 21, 23, 24, 29, 1, 2, 7, 11, 17, 29, 5, 12, 16, 18, 19, 27, 4, 5, 6, 21, 22, 30, 5, 8, 19, 20, 22, 27, 1, 3, 7, 15, 19, 22, 3, 8, 10, 12, 25, 29, 16, 19, 24, 25, 26, 27, 1, 16, 17, 20, 24, 25, 2, 8, 10, 18, 23, 26];
rreq = [|1, 1, 1, 1, 1, 1, 5, 4, 4, 3, 3, 3, 2, 1, 1, 1, 1, 1, 3, 3, 2, 2, 1, 1, 3, 2, 2, 2, 2, 2, 2, 1, 1, 1, 1, 1, 3, 3, 3, 3, 3, 3, 3, 3, 3, 2, 2, 2, 5, 5, 5, 5, 5, 5, 4, 4, 4, 3, 3, 3, 2, 2, 2, 2, 2, 2, 3, 3, 3, 3, 3, 3, 5, 5, 5, 5, 5, 5, 5, 4, 4, 4, 4, 4, 1, 1, 1, 1, 1, 1, 2, 2, 2, 1, 1, 1, 4, 4, 3, 2, 2, 1, 2, 2, 2, 2, 1, 1, 2, 2, 2, 2, 1, 1, 1, 1, 1, 1, 1, 1, 2, 2, 2, 2, 2, 2, 4, 3, 3, 3, 3, 3, 4, 4, 3, 2, 1, 1, 2, 2, 2, 1, 1, 1, 5, 5, 5, 5, 5, 5, 3, 3, 2, 2, 2, 1, 4, 3, 3, 2, 2, 2, 3, 3, 3, 3, 2, 2, 3, 3, 3, 3, 3, 3, 5, 4, 4, 4, 4, 4, 4, 3, 3, 3, 3, 3, 4, 4, 3, 3, 3, 2, 4, 4, 4, 3, 3, 3, 5, 5, 5, 5, 5, 5, 4, 4, 4, 4, 4, 4, 5, 5, 5, 5, 5, 5, 4, 4, 4, 4, 4, 4, 4, 3, 3, 2, 2, 1, 4, 4, 4, 4, 4, 4, 5, 5, 5, 5, 5, 5, 2, 2, 2, 2, 1, 1, 4, 3, 3, 2, 2, 2, 3, 3, 3, 2, 2, 2, 4, 3, 3, 3, 2, 2, 2, 2, 2, 2, 1, 1, 2, 1, 1, 1, 1, 1, 3, 3, 3, 2, 2, 2, 1, 1, 1, 1, 1, 1, 5, 5, 5, 5, 5, 5, 3, 3, 3, 2, 2, 2
 |2, 2, 2, 2, 2, 2, 4, 3, 3, 2, 2, 1, 5, 5, 5, 5, 5, 5, 4, 4, 4, 3, 3, 3, 4, 4, 4, 4, 3, 3, 1, 1, 1, 1, 1, 1, 2, 2, 2, 2, 2, 2, 2, 1, 1, 1, 1, 1, 4, 3, 3, 3, 2, 2, 4, 3, 3, 2, 2, 1, 5, 4, 4, 4, 4, 4, 5, 4, 4, 4, 3, 3, 5, 4, 4, 4, 4, 4, 4, 4, 4, 3, 3, 2, 4, 4, 4, 4, 4, 4, 4, 3, 3, 3, 3, 3, 5, 5, 5, 5, 5, 5, 2, 1, 1, 1, 1, 1, 4, 4, 3, 3, 1, 1, 5, 4, 4, 4, 4, 4, 4, 4, 3, 3, 2, 2, 3, 3, 3, 3, 3, 3, 4, 3, 3, 3, 3, 3, 4, 3, 3, 3, 3, 3, 1, 1, 1, 1, 1, 1, 3, 3, 3, 3, 3, 3, 3, 3, 2, 2, 2, 1, 2, 2, 2, 1, 1, 1, 3, 3, 3, 3, 3, 3, 5, 3, 3, 2, 2, 1, 4, 3, 3, 2, 1, 1, 4, 4, 3, 2, 2, 1, 4, 4, 4, 4, 3, 3, 4, 4, 4, 3, 3, 3, 2, 1, 1, 1, 1, 1, 5, 5, 5, 5, 5, 5, 5, 4, 4, 3, 2, 2, 2, 2, 2, 2, 1, 1, 5, 5, 5, 5, 5, 5, 3, 2, 2, 2, 1, 1, 1, 1, 1, 1, 1, 1, 5, 4, 4, 4, 3, 3, 3, 2, 2, 2, 2, 2, 2, 2, 2, 2, 2, 2, 2, 1, 1, 1, 1, 1, 1, 1, 1, 1, 1, 1, 4, 4, 4, 4, 4, 4, 5, 4, 4, 3, 2, 2, 1, 1, 1, 1, 1, 1, 1, 1, 1, 1, 1, 1
 |4, 3, 3, 2, 1, 1, 3, 2, 2, 1, 1, 1, 3, 2, 2, 2, 2, 2, 3, 3, 2, 2, 2, 1, 1, 1, 1, 1, 1, 1, 2, 2, 2, 2, 2, 2, 4, 4, 3, 3, 3, 2, 4, 4, 3, 3, 2, 1, 4, 3, 2, 2, 1, 1, 3, 3, 3, 3, 2, 2, 1, 1, 1, 1, 1, 1, 4, 3, 3, 3, 2, 2, 3, 3, 3, 3, 3, 3, 1, 1, 1, 1, 1, 1, 4, 3, 2, 2, 1, 1, 3, 2, 2, 1, 1, 1, 3, 3, 3, 3, 3, 3, 4, 3, 2, 2, 1, 1, 4, 3, 3, 3, 2, 1, 2, 2, 2, 2, 2, 2, 4, 3, 3, 2, 1, 1, 4, 4, 4, 4, 3, 3, 4, 3, 3, 2, 1, 1, 3, 3, 3, 3, 3, 3, 3, 3, 3, 2, 2, 2, 2, 2, 2, 2, 2, 2, 5, 4, 3, 2, 1, 1, 4, 4, 4, 4, 3, 3, 4, 4, 4, 4, 3, 3, 5, 3, 3, 3, 1, 1, 4, 4, 4, 3, 2, 2, 2, 2, 2, 2, 2, 2, 5, 4, 4, 3, 3, 3, 4, 4, 3, 2, 2, 1, 2, 2, 2, 2, 1, 1, 4, 3, 3, 2, 2, 2, 5, 4, 4, 4, 4, 4, 2, 1, 1, 1, 1, 1, 4, 4, 4, 4, 4, 4, 4, 3, 2, 2, 1, 1, 2, 1, 1, 1, 1, 1, 4, 4, 4, 3, 2, 2, 5, 4, 4, 3, 3, 3, 2, 1, 1, 1, 1, 1, 3, 3, 3, 3, 3, 3, 1, 1, 1, 1, 1, 1, 4, 3, 3, 2, 2, 2, 5, 3, 3, 2, 2, 1, 3, 3, 3, 3, 3, 3, 1, 1, 1, 1, 1, 1
 |5, 4, 3, 3, 2, 1, 4, 3, 3, 2, 2, 1, 3, 3, 3, 3, 2, 2, 5, 4, 4, 3, 3, 3, 2, 2, 2, 2, 2, 2, 4, 4, 4, 4, 3, 3, 4, 4, 3, 2, 1, 1, 3, 3, 3, 2, 1, 1, 4, 3, 3, 3, 3, 3, 2, 2, 2, 2, 2, 2, 3, 3, 3, 3, 3, 3, 2, 1, 1, 1, 1, 1, 4, 3, 2, 2, 1, 1, 4, 4, 3, 2, 1, 1, 1, 1, 1, 1, 1, 1, 5, 4, 3, 3, 2, 1, 5, 4, 3, 2, 2, 1, 1, 1, 1, 1, 1, 1, 2, 2, 2, 2, 1, 1, 4, 4, 4, 4, 4, 4, 4, 3, 3, 2, 2, 2, 3, 2, 2, 2, 2, 2, 2, 2, 2, 2, 2, 2, 5, 4, 4, 4, 4, 4, 4, 3, 3, 3, 3, 3, 2, 2, 2, 2, 2, 2, 1, 1, 1, 1, 1, 1, 3, 2, 2, 2, 2, 2, 3, 2, 2, 2, 1, 1, 2, 2, 2, 2, 2, 2, 5, 4, 4, 4, 4, 4, 4, 4, 3, 3, 1, 1, 2, 2, 2, 2, 2, 2, 3, 3, 3, 2, 2, 1, 3, 2, 2, 2, 2, 2, 4, 4, 3, 2, 2, 1, 2, 2, 2, 2, 2, 2, 5, 4, 4, 3, 3, 3, 5, 4, 3, 3, 3, 2, 3, 3, 3, 2, 2, 2, 2, 2, 2, 1, 1, 1, 4, 4, 4, 3, 3, 2, 3, 3, 3, 3, 3, 3, 4, 4, 4, 4, 4, 4, 5, 4, 4, 3, 3, 3, 1, 1, 1, 1, 1, 1, 4, 3, 3, 3, 1, 1, 5, 4, 3, 2, 1, 1, 5, 3, 3, 3, 2, 1, 3, 2, 2, 2, 2, 2
 |28, 25, 23, 20, 17, 16, 19, 14, 13, 10, 7, 5, 20, 20, 20, 19, 19, 19, 26, 23, 23, 21, 18, 17, 22, 19, 17, 13, 11, 8, 24, 23, 20, 19, 14, 12, 26, 25, 23, 22, 21, 18, 23, 20, 17, 14, 14, 9, 26, 25, 21, 20, 16, 16, 22, 22, 20, 19, 16, 16, 17, 15, 13, 11, 9, 8, 15, 14, 14, 14, 13, 13, 20, 20, 18, 15, 13, 11, 24, 20, 14, 14, 7, 6, 13, 13, 13, 13, 13, 13, 20, 17, 14, 11, 9, 7, 28, 25, 17, 14, 10, 9, 11, 10, 9, 9, 8, 8, 26, 26, 22, 20, 19, 17, 16, 14, 10, 8, 8, 5, 6, 5, 5, 5, 4, 4, 12, 9, 8, 7, 3, 3, 28, 27, 27, 26, 24, 22, 16, 16, 16, 16, 16, 16, 13, 13, 12, 12, 12, 11, 14, 13, 9, 8, 7, 5, 19, 16, 13, 10, 5, 3, 18, 16, 12, 9, 6, 4, 29, 27, 26, 25, 23, 23, 7, 6, 5, 5, 3, 3, 19, 18, 18, 18, 18, 18, 16, 14, 12, 10, 10, 8, 13, 12, 11, 11, 10, 8, 28, 24, 21, 18, 18, 12, 29, 23, 20, 16, 13, 10, 8, 7, 6, 6, 4, 4, 26, 26, 25, 25, 24, 23, 27, 24, 21, 17, 14, 13, 18, 17, 17, 15, 13, 12, 15, 13, 11, 8, 5, 4, 14, 13, 12, 12, 11, 10, 15, 12, 8, 8, 6, 3, 19, 17, 14, 9, 8, 2, 18, 18, 15, 14, 11, 9, 22, 16, 15, 10, 9, 3, 28, 28, 28, 28, 28, 28, 28, 25, 19, 19, 16, 11, 8, 7, 7, 6, 5, 5, 23, 23, 23, 23, 23, 23, 21, 19, 19, 16, 15, 13
 |24, 24, 17, 12, 11, 7, 10, 9, 8, 8, 6, 6, 9, 7, 7, 7, 6, 5, 24, 23, 19, 14, 11, 10, 19, 16, 14, 8, 7, 2, 20, 20, 16, 8, 4, 2, 21, 21, 20, 18, 18, 17, 7, 5, 4, 4, 3, 2, 10, 9, 8, 6, 6, 3, 28, 25, 25, 23, 20, 20, 16, 16, 13, 12, 8, 8, 16, 13, 12, 10, 6, 5, 27, 23, 19, 13, 7, 6, 14, 13, 13, 13, 12, 12, 16, 16, 16, 16, 16, 16, 26, 23, 23, 19, 13, 11, 9, 8, 8, 8, 8, 8, 16, 15, 15, 14, 14, 14, 17, 15, 11, 9, 4, 3, 27, 26, 25, 23, 21, 19, 26, 24, 22, 20, 17, 16, 28, 21, 17, 14, 11, 8, 23, 21, 21, 20, 19, 19, 9, 8, 7, 7, 5, 5, 3, 3, 3, 3, 3, 3, 20, 18, 16, 14, 12, 11, 18, 14, 13, 10, 6, 4, 22, 21, 19, 19, 17, 16, 26, 25, 25, 23, 22, 22, 18, 14, 14, 12, 11, 9, 7, 6, 4, 3, 3, 2, 18, 15, 15, 12, 8, 7, 10, 8, 7, 7, 6, 5, 28, 26, 24, 21, 20, 16, 18, 18, 18, 18, 18, 18, 29, 27, 24, 22, 20, 18, 16, 11, 11, 8, 6, 3, 4, 4, 4, 3, 3, 3, 21, 20, 17, 16, 12, 9, 12, 10, 10, 8, 8, 7, 10, 8, 8, 8, 7, 6, 26, 24, 19, 17, 13, 10, 20, 18, 14, 14, 11, 8, 23, 17, 14, 10, 6, 5, 24, 24, 23, 22, 21, 21, 21, 21, 21, 21, 21, 21, 6, 6, 6, 6, 5, 5, 8, 8, 8, 8, 8, 8, 12, 10, 9, 7, 5, 5, 22, 19, 18, 15, 10, 8
 |17, 15, 12, 11, 10, 7, 30, 27, 25, 23, 22, 18, 22, 22, 22, 22, 21, 21, 20, 17, 13, 11, 6, 5, 15, 11, 11, 10, 6, 6, 22, 21, 17, 9, 5, 1, 25, 19, 18, 13, 6, 4, 29, 26, 25, 25, 23, 21, 23, 21, 18, 17, 15, 14, 24, 21, 20, 18, 15, 12, 20, 19, 18, 17, 15, 15, 15, 14, 13, 13, 13, 12, 28, 26, 25, 22, 22, 19, 21, 19, 17, 13, 9, 2, 24, 24, 22, 18, 18, 15, 22, 18, 16, 12, 10, 7, 28, 26, 25, 22, 21, 19, 19, 19, 16, 14, 11, 11, 22, 18, 18, 17, 15, 13, 5, 5, 5, 5, 5, 5, 24, 20, 15, 9, 9, 2, 25, 22, 21, 17, 11, 10, 23, 19, 15, 9, 5, 2, 10, 8, 8, 6, 6, 4, 24, 21, 19, 15, 12, 12, 14, 11, 10, 9, 7, 6, 27, 25, 25, 22, 22, 20, 22, 17, 17, 14, 11, 10, 30, 24, 22, 14, 11, 10, 23, 20, 19, 17, 14, 14, 25, 22, 20, 18, 15, 10, 14, 10, 9, 6, 5, 4, 26, 23, 20, 14, 11, 8, 19, 19, 18, 17, 17, 16, 24, 24, 24, 24, 24, 24, 25, 25, 22, 22, 18, 17, 23, 21, 18, 14, 12, 6, 21, 18, 17, 15, 13, 11, 14, 12, 10, 8, 6, 4, 24, 21, 18, 15, 14, 13, 24, 23, 19, 17, 15, 12, 17, 17, 16, 15, 14, 14, 14, 13, 12, 12, 11, 11, 10, 9, 9, 7, 6, 3, 24, 23, 23, 23, 23, 23, 7, 7, 6, 4, 4, 2, 23, 21, 18, 18, 16, 14, 20, 18, 18, 17, 17, 16, 22, 19, 15, 15, 10, 8, 18, 15, 11, 10, 7, 4
 |19, 16, 13, 13, 10, 9, 18, 18, 13, 13, 9, 6, 24, 24, 18, 16, 14, 10, 26, 23, 21, 19, 17, 15, 13, 13, 13, 13, 13, 13, 10, 10, 10, 10, 10, 10, 26, 21, 21, 17, 13, 13, 16, 13, 12, 11, 10, 9, 27, 26, 25, 24, 24, 23, 8, 8, 8, 7, 6, 6, 24, 24, 24, 24, 24, 24, 23, 21, 18, 14, 13, 10, 17, 13, 10, 8, 6, 4, 23, 21, 17, 16, 10, 9, 19, 15, 11, 8, 5, 5, 3, 3, 3, 3, 3, 3, 4, 4, 4, 4, 3, 3, 20, 20, 20, 19, 18, 17, 15, 14, 13, 13, 12, 10, 13, 13, 13, 12, 11, 11, 24, 19, 19, 15, 15, 13, 20, 17, 13, 12, 10, 7, 14, 12, 12, 12, 11, 10, 13, 11, 10, 9, 7, 5, 10, 10, 10, 9, 9, 8, 22, 20, 20, 18, 16, 13, 3, 3, 3, 3, 3, 3, 4, 4, 4, 4, 4, 4, 24, 22, 22, 22, 20, 20, 29, 27, 24, 21, 17, 17, 29, 23, 20, 15, 10, 10, 26, 25, 23, 22, 21, 21, 25, 22, 17, 14, 12, 6, 23, 19, 17, 12, 9, 6, 20, 19, 14, 14, 9, 7, 22, 21, 19, 17, 14, 12, 23, 22, 20, 19, 19, 18, 15, 12, 9, 8, 4, 1, 23, 22, 22, 22, 22, 22, 17, 17, 17, 17, 17, 17, 21, 18, 11, 9, 6, 4, 10, 10, 10, 10, 10, 10, 23, 22, 21, 19, 18, 18, 28, 28, 27, 25, 24, 22, 17, 17, 11, 10, 6, 5, 28, 27, 27, 26, 25, 25, 19, 18, 17, 17, 16, 14, 25, 23, 22, 21, 20, 19, 18, 18, 14, 13, 11, 9, 23, 23, 21, 17, 15, 13|];